c --- [ banner ] -------------------------------------------------------------
c 
c CaDiCaL Radically Simplified CDCL SAT Solver
c Copyright (c) 2016-2021 A. Biere, M. Fleury, N. Froleyks
c 
c Version 1.5.2 a5f15211db36c3956764e18194dd5bd63bf3b5e6
c g++ (GCC) 9.3.0 -Wall -Wextra -O3 -DNDEBUG
c Fri Oct 21 01:27:37 EDT 2022 Linux gra-login3 3.10.0-1160.66.1.el7.x86_64 x86_64
c 
c --- [ limit ] --------------------------------------------------------------
c 
c setting conflict limit to 200000 conflicts (due to '200000')
c 
c --- [ parsing input ] ------------------------------------------------------
c 
c reading DIMACS file from '33.cubes1129.adj'
c opening file to read '33.cubes1129.adj'
c found 'p cnf 6160 1595474' header
c parsed 1595474 clauses in 18.88 seconds process time
c closing file '33.cubes1129.adj'
c after reading 1457566769 bytes 1390.0 MB
c 
c --- [ options ] ------------------------------------------------------------
c 
c all options are set to their default value
c 
c --- [ solving ] ------------------------------------------------------------
c 
c time measured in process time since initialization
c 
c  seconds    reductions  redundant   irredundant
c          MB     restarts       trail       variables
c            level   conflicts       glue         remaining
c 
c * 18.88 1367  0 0   0    0    0  0% 0 1595422 2339 38%
c { 20.22 1429  0 0   0    0    0  0% 0 1595422 2339 38%
c i 20.47 1433 714 0   0   10    9 31% 1 1595422 2327 38%
c i 21.05 1458 703 0   0   12   10 31% 1 1595422 2318 38%
c i 23.12 1495 143 0  19   84   55 25% 17 1595422 2314 38%
c i 23.20 1495 138 0  20   89   58 25% 18 1595422 2313 38%
c i 23.21 1495 135 0  21   91   59 25% 18 1595422 2312 38%
c i 23.21 1495 133 0  21   93   60 25% 18 1595422 2311 38%
c i 23.25 1495 125 0  24  101   66 26% 18 1595422 2310 38%
c i 23.60 1498 110 0  28  119   80 26% 18 1595422 2309 37%
c i 24.01 1504 105 0  32  135   95 27% 20 1595422 2308 37%
c i 24.41 1506 86 0  39  182  129 26% 20 1595422 2307 37%
c i 25.39 1510 80 0  50  223  160 26% 22 1595422 2306 37%
c i 25.43 1510 79 0  50  226  162 26% 22 1595422 2305 37%
c i 25.63 1510 80 0  52  237  169 26% 23 1595422 2304 37%
c i 25.66 1510 79 0  52  243  174 26% 23 1595422 2303 37%
c i 25.90 1510 80 0  57  258  186 26% 24 1595422 2302 37%
c i 25.94 1510 79 0  58  264  191 27% 24 1595422 2301 37%
c i 26.36 1512 79 0  68  301  220 26% 25 1595422 2300 37%
c - 30.00 1408 79 1  68  301  220 26% 25 231748 2300 37%
c 
c  seconds    reductions  redundant   irredundant
c          MB     restarts       trail       variables
c            level   conflicts       glue         remaining
c 
c i 30.37 1356 79 1  77  335  252 27% 27 231748 2299 37%
c i 30.89 1356 73 1  95  427  329 27% 28 231748 2298 37%
c i 30.90 1356 73 1  96  432  332 27% 28 231748 2297 37%
c i 31.05 1356 76 1 102  455  351 27% 31 231748 2296 37%
c i 31.22 1356 75 1 106  471  363 27% 31 231748 2295 37%
c i 31.24 1356 75 1 107  472  363 27% 31 231748 2294 37%
c i 31.34 1356 75 1 115  499  385 27% 32 231748 2293 37%
c i 31.35 1356 75 1 115  502  386 27% 32 231748 2292 37%
c i 31.35 1356 75 1 116  504  387 27% 31 231748 2291 37%
c i 31.39 1356 73 1 119  526  405 27% 31 231748 2290 37%
c i 31.40 1356 72 1 119  535  409 27% 31 231748 2289 37%
c i 31.41 1356 72 1 119  538  411 27% 31 231748 2288 37%
c i 31.43 1356 72 1 119  542  413 28% 31 231748 2286 37%
c i 31.44 1356 74 1 119  550  420 28% 31 231748 2285 37%
c i 31.47 1356 75 1 121  564  430 28% 32 231748 2284 37%
c i 31.49 1356 75 1 122  567  432 28% 32 231748 2283 37%
c i 31.73 1356 76 1 132  641  488 27% 32 231748 2282 37%
c i 31.74 1356 76 1 133  642  488 27% 32 231748 2281 37%
c i 31.74 1356 76 1 133  643  488 27% 32 231748 2280 37%
c i 31.77 1356 75 1 136  662  501 27% 33 231748 2279 37%
c 
c  seconds    reductions  redundant   irredundant
c          MB     restarts       trail       variables
c            level   conflicts       glue         remaining
c 
c i 31.78 1356 75 1 138  666  504 27% 32 231748 2278 37%
c i 31.78 1356 75 1 138  668  505 27% 32 231748 2277 37%
c i 31.78 1356 74 1 138  670  506 27% 32 231748 2276 37%
c i 31.79 1356 74 1 138  678  513 27% 32 231748 2275 37%
c i 31.80 1356 74 1 138  679  513 27% 32 231748 2274 37%
c i 31.83 1356 74 1 138  689  520 27% 33 231748 2273 37%
c i 31.83 1356 74 1 139  692  522 27% 33 231748 2272 37%
c i 31.85 1356 74 1 141  699  528 27% 33 231748 2271 37%
c i 31.88 1356 74 1 143  704  532 28% 33 231748 2270 37%
c i 32.12 1356 72 1 148  762  579 28% 32 231748 2269 37%
c i 32.18 1356 70 1 148  797  609 28% 32 231748 2268 37%
c i 32.26 1356 70 1 151  825  633 28% 33 231748 2267 37%
c i 32.29 1356 70 1 152  828  635 28% 33 231748 2266 37%
c i 32.34 1356 69 1 152  841  646 28% 32 231748 2265 37%
c i 32.42 1356 70 1 154  863  661 28% 33 231748 2264 37%
c i 32.62 1356 69 1 160  891  682 28% 33 231748 2263 37%
c i 32.62 1356 69 1 160  892  682 28% 33 231748 2262 37%
c i 32.72 1356 69 1 160  903  685 28% 32 231748 2261 37%
c i 32.73 1356 69 1 160  904  685 28% 32 231748 2260 37%
c i 32.73 1356 69 1 160  905  685 28% 32 231748 2259 37%
c 
c  seconds    reductions  redundant   irredundant
c          MB     restarts       trail       variables
c            level   conflicts       glue         remaining
c 
c i 32.73 1356 69 1 160  907  686 28% 32 231748 2258 37%
c i 33.07 1356 69 1 164  949  721 28% 33 231748 2257 37%
c i 33.09 1356 69 1 165  952  723 28% 33 231748 2256 37%
c i 33.09 1356 69 1 166  954  724 28% 33 231748 2255 37%
c i 33.11 1356 68 1 167  961  729 28% 33 231748 2254 37%
c i 33.12 1356 69 1 167  965  731 28% 33 231748 2252 37%
c } 33.37 1356 68 1 169 1000  760 28% 33 231748 2252 37%
c [ 33.37 1356  0 1 169 1000  760  0% 0 231748 2252 37%
c O 33.39 1356 18 1 169 1002  762 25% 2 231748 2252 37%
c i 33.57 1356 15 1 169 1018  776 28% 5 231748 2251 37%
c i 33.60 1356 15 1 169 1029  785 29% 7 231748 2250 37%
c i 33.60 1356 14 1 169 1031  786 29% 7 231748 2249 37%
c i 33.60 1356 14 1 169 1033  787 28% 7 231748 2248 36%
c i 33.63 1356 14 1 169 1043  796 29% 9 231748 2247 36%
c i 33.63 1356 14 1 169 1044  796 29% 8 231748 2246 36%
c i 33.63 1356 14 1 169 1045  796 29% 8 231748 2245 36%
c i 33.63 1356 14 1 169 1046  796 29% 8 231748 2244 36%
c i 33.74 1356 15 1 169 1077  821 29% 9 231748 2243 36%
c i 33.78 1356 15 1 169 1084  826 29% 9 231748 2242 36%
c i 33.82 1356 15 1 169 1093  834 29% 9 231748 2241 36%
c 
c  seconds    reductions  redundant  irredundant
c          MB     restarts       trail      variables
c            level   conflicts       glue        remaining
c 
c i 33.86 1356 15 1 169 1112  849 29% 9 231748 2240 36%
c - 34.31 1443 15 2 169 1120  732 29% 10 231573 2240 36%
c i 34.50 1443 16 2 169 1169  765 29% 11 231573 2239 36%
c i 34.56 1443 17 2 169 1190  781 29% 12 231573 2238 36%
c i 34.57 1443 17 2 169 1193  782 29% 12 231573 2237 36%
c i 34.61 1443 17 2 169 1226  804 29% 12 231573 2236 36%
c i 34.62 1443 17 2 169 1235  809 29% 12 231573 2235 36%
c i 34.62 1443 17 2 169 1236  809 29% 12 231573 2234 36%
c i 34.65 1443 17 2 169 1256  827 29% 12 231573 2233 36%
c i 34.68 1443 17 2 169 1290  853 29% 12 231573 2232 36%
c i 34.79 1443 17 2 169 1334  883 29% 12 231573 2231 36%
c i 34.84 1443 17 2 169 1365  910 29% 12 231573 2229 36%
c i 34.87 1443 18 2 169 1374  918 29% 12 231573 2228 36%
c i 34.87 1443 18 2 169 1377  918 29% 12 231573 2227 36%
c i 34.91 1443 18 2 169 1408  937 29% 13 231573 2226 36%
c i 34.91 1443 18 2 169 1415  941 29% 13 231573 2225 36%
c i 35.00 1443 19 2 169 1503 1003 29% 14 231573 2224 36%
c i 35.15 1443 19 2 169 1623 1095 29% 14 231573 2223 36%
c i 35.36 1443 19 2 169 1886 1286 30% 15 231573 2222 36%
c - 36.21 1441 18 3 170 2348 1201 30% 14 231524 2222 36%
c 
c  seconds    reductions  redundant   irredundant
c          MB     restarts       trail       variables
c            level   conflicts       glue         remaining
c 
c ] 37.10 1441 21 3 170 3001 1670 52% 17 231524 2222 36%
c { 37.10 1441 68 3 170 3001 1670 76% 33 231524 2222 36%
c F 37.12 1441 68 3 170 3003 1672 76% 33 231524 2222 36%
c i 37.53 1441 65 3 178 3166 1805 72% 32 231524 2221 36%
c i 37.69 1441 57 3 178 3453 2016 67% 29 231524 2220 36%
c i 37.77 1441 54 3 178 3618 2144 64% 28 231524 2219 36%
c i 37.87 1441 54 3 187 3682 2198 64% 28 231524 2218 36%
c i 37.93 1441 52 3 187 3834 2308 62% 28 231524 2217 36%
c - 38.16 1358 50 4 187 3986 1760 61% 28 231510 2217 36%
c 2 38.97 1358 42 4 187 5001 3549 58% 26 231476 2206 36%
c p 43.49 1358 42 4 187 5001 6874 58% 26 231476 2179 35%
c d 43.81 1358 42 4 187 5001 6726 58% 26 231396 2177 35%
c } 44.20 1358 39 4 187 5495 7115 57% 25 231396 2177 35%
c 1 44.20 1358 39 4 187 5495 7115 57% 25 231396 2177 35%
c 
c --- [ writing output ] -----------------------------------------------------
c 
c writing simplified CNF to DIMACS file 'simp/33.cubes1129.adj.simp1'
c * 44.20 1358 39 4 187 5495 7115 57% 25 231396 2177 35%
c opening file to write 'simp/33.cubes1129.adj.simp1'
c writing 'p cnf 6160 231396' header
c closing file 'simp/33.cubes1129.adj.simp1'
c after writing 91830753 bytes 87.6 MB
c wrote 231396 clauses in 0.66 seconds process time
c 
c --- [ writing extension ] --------------------------------------------------
c 
c writing extension stack to 'simp/33.cubes1129.adj.ext1'
c opening file to write 'simp/33.cubes1129.adj.ext1'
c closing file 'simp/33.cubes1129.adj.ext1'
c after writing 12827 bytes 0.0 MB
c wrote 852 witnesses in 0.00 seconds process time
c 
c --- [ result ] -------------------------------------------------------------
c 
s SATISFIABLE
c 
c --- [ run-time profiling ] -------------------------------------------------
c 
c process time taken by individual solving procedures
c (percentage relative to process time for solving)
c 
c        20.09   79.33% search
c        18.88   74.58% parse
c        15.02   59.32% unstable
c         5.23   20.67% simplify
c         4.53   17.88% probe
c         3.73   14.72% stable
c         1.34    5.29% lucky
c         0.04    0.16% ternary
c   =================================
c        25.32   56.43% solve
c 
c last line shows process time for solving
c (percentage relative to total process time)
c 
c --- [ statistics ] ---------------------------------------------------------
c 
c chronological:              1238        22.53 %  of conflicts
c conflicts:                  5495       217.03    per second
c decisions:                 22914       905.02    per second
c fixed:                       826        13.41 %  of all variables
c learned:                    5382        97.94 %  per conflict
c learned_lits:             983853       100.00 %  learned literals
c minimized:                     0         0.00 %  learned literals
c shrunken:                 534660        54.34 %  learned literals
c minishrunken:              97982         9.96 %  learned literals
c propagations:            1063499         0.04 M  per second
c reduced:                    1184        21.55 %  per conflict
c rephased:                      2      2747.50    interval
c restarts:                    187        29.39    interval
c stabilizing:                   1        36.41 %  of conflicts
c substituted:                  13         0.21 %  of all variables
c subsumed:                   1241         0.04 %  of all clauses
c ternary:                    1068         0.55 %  of resolved
c weakened:                     26         2.00    average size
c 
c seconds are measured in process time for solving
c 
c --- [ resources ] ----------------------------------------------------------
c 
c total process time since initialization:        44.87    seconds
c total real time since initialization:           45.19    seconds
c maximum resident set size of process:         1528.07    MB
c 
c --- [ shutting down ] ------------------------------------------------------
c 
c exit 10
WARNING! DIMACS header mismatch: wrong number of variables.
============================[ Problem Statistics ]=============================
|                                                                             |
|  Number of variables:          6120                                         |
|  Number of clauses:          231396                                         |
|  Parse time:                   1.22 s                                       |
|  Simplification time:          0.02 s                                       |
|                                                                             |
============================[ Search Statistics ]====================================================
| Conflicts |          ORIGINAL         |          LEARNT          | Num Sols |      SUBGRAPHS      |
|           |    Vars  Clauses Literals |    Limit  Clauses Lit/Cl |          | Canonical Noncanon. |
=====================================================================================================
|       117 |    6027   231413 20301536 |     2000      117     61 |        0 |        17        17 |
|       270 |    6027   231416 20301693 |     2000      270     89 |        0 |        22        20 |
|       618 |    6027   231539 20304205 |     2000      618     87 |        0 |        32       143 |
|      1120 |    6027   231704 20308225 |     2000     1120     76 |        0 |       124       308 |
|      1681 |    6027   231759 20309660 |     2000     1681     84 |        0 |       146       363 |
|      2552 |    6027   231871 20312621 |     3602     1554     63 |        0 |       205       475 |
|      3867 |    6027   232047 20317349 |     3602     2869     77 |        0 |       324       651 |
|      5587 |    6027   232059 20317763 |     5002     2789     69 |        0 |       369       663 |
|      8174 |    6027   232084 20318951 |     6312     2886     62 |        0 |       389       688 |
|     16251 |    6027   236317 20399607 |     8782     4033     18 |        0 |      1893      4921 |
|     24278 |    6027   238578 20441206 |     9991     7669     40 |        0 |      2413      7182 |
|     40457 |    6027   246108 20584835 |    13609     7066     24 |        0 |      4036     14712 |
|     66430 |    6027   259107 20827924 |    17215    10845     27 |        0 |      5876     27711 |
|     92010 |    6027   265226 20942613 |    19612    18622     52 |        0 |      8086     33830 |
|    153216 |    6027   297240 21485931 |    25610    24826     32 |        0 |     12690     65844 |
|    230256 |    6027   330491 22033866 |    32807    16063     15 |        0 |     18776     99095 |
|    321721 |    6027   356272 22459188 |    38811    19532     16 |        0 |     23046    124876 |
|    512741 |    6027   448766 23926962 |    48420    38561     37 |        0 |     41771    217370 |
|    879965 |    5976   562877 25360535 |    63781    44144     19 |        0 |     65635    436805 |
=====================================================================================================
Number of solutions   : 0
Canonical subgraphs   : 70853          (40 /sec)
          order  3    : 1              (200000 /sec)
          order  4    : 1              (500000 /sec)
          order  5    : 1              (200000 /sec)
          order  6    : 1              (52632 /sec)
          order  7    : 2              (10101 /sec)
          order  8    : 6              (2642 /sec)
          order  9    : 17             (607 /sec)
          order 10    : 68             (201 /sec)
          order 11    : 367            (95 /sec)
          order 12    : 2224           (65 /sec)
          order 13    : 18309          (53 /sec)
          order 14    : 9516           (57 /sec)
          order 15    : 17328          (41 /sec)
          order 16    : 16801          (32 /sec)
          order 17    : 4550           (23 /sec)
          order 18    : 1182           (21 /sec)
          order 19    : 376            (18 /sec)
          order 20    : 59             (22 /sec)
          order 21    : 44             (28 /sec)
          order 22    : 0              (-nan /sec)
Noncanonical subgraphs: 461155         (347 /sec)
          order  3    : 0              (-nan /sec)
          order  4    : 0              (-nan /sec)
          order  5    : 0              (-nan /sec)
          order  6    : 0              (-nan /sec)
          order  7    : 0              (-nan /sec)
          order  8    : 0              (-nan /sec)
          order  9    : 0              (-nan /sec)
          order 10    : 0              (-nan /sec)
          order 11    : 0              (-nan /sec)
          order 12    : 0              (-nan /sec)
          order 13    : 36106          (2917 /sec)
          order 14    : 337412         (354 /sec)
          order 15    : 41661          (393 /sec)
          order 16    : 32271          (259 /sec)
          order 17    : 13656          (102 /sec)
          order 18    : 2              (2604 /sec)
          order 19    : 3              (1496 /sec)
          order 20    : 0              (-nan /sec)
          order 21    : 0              (-nan /sec)
Canonicity checking   : 1776.72 s
Noncanonicity checking: 1330.88 s
Total canonicity time : 3107.6 s
database reductions   : 53
restarts              : 2044
conflicts             : 935783         (266 /sec)
decisions             : 1592363        (0.00 % random) (453 /sec)
propagations          : 95728760       (27219 /sec)
conflict literals     : 56617480       (55.41 % deleted)
actual reward         : 0.089526
Memory used           : 395.00 MB
CPU time              : 3516.97 s

UNSATISFIABLE
